c File: instances/40_0.30_3.col
c
c Description: Random graph of size 40 vertices and P(0.3) of edges between any two vertices.
p col 40 780
e 1 7
e 1 10
e 1 12
e 1 15
e 1 18
e 1 24
e 1 39
e 1 40
e 2 7
e 2 11
e 2 15
e 2 19
e 2 20
e 2 21
e 2 26
e 2 27
e 2 29
e 2 30
e 2 36
e 2 40
e 3 4
e 3 11
e 3 14
e 3 22
e 3 25
e 3 26
e 3 27
e 3 37
e 3 40
e 4 5
e 4 6
e 4 7
e 4 9
e 4 12
e 4 13
e 4 15
e 4 18
e 4 21
e 4 25
e 4 30
e 4 34
e 4 36
e 5 7
e 5 9
e 5 11
e 5 14
e 5 18
e 5 22
e 5 23
e 5 26
e 5 28
e 5 29
e 5 31
e 5 35
e 5 40
e 6 17
e 6 20
e 6 27
e 6 30
e 6 32
e 6 33
e 6 37
e 6 38
e 6 40
e 7 10
e 7 15
e 7 18
e 7 21
e 7 28
e 7 30
e 7 33
e 7 35
e 7 37
e 8 11
e 8 12
e 8 13
e 8 14
e 8 21
e 8 24
e 8 32
e 8 33
e 8 34
e 8 35
e 8 39
e 8 40
e 9 10
e 9 15
e 9 19
e 9 25
e 9 26
e 9 27
e 9 31
e 9 33
e 9 34
e 10 12
e 10 13
e 10 20
e 10 26
e 10 29
e 10 32
e 10 35
e 11 16
e 11 18
e 11 19
e 11 22
e 11 32
e 11 36
e 11 38
e 11 39
e 11 40
e 12 16
e 12 18
e 12 21
e 12 26
e 12 29
e 12 31
e 13 15
e 13 16
e 13 19
e 13 27
e 13 29
e 13 30
e 13 31
e 13 32
e 13 38
e 13 40
e 14 19
e 14 20
e 14 24
e 14 26
e 14 30
e 14 31
e 14 36
e 14 39
e 15 18
e 15 19
e 15 24
e 15 27
e 15 33
e 15 39
e 16 17
e 16 19
e 16 21
e 16 27
e 16 28
e 16 30
e 16 36
e 16 38
e 16 39
e 16 40
e 17 20
e 17 24
e 17 25
e 17 26
e 17 27
e 17 33
e 17 38
e 18 20
e 18 22
e 18 28
e 18 30
e 18 33
e 18 35
e 18 37
e 19 24
e 19 29
e 19 30
e 19 36
e 20 22
e 20 30
e 20 31
e 20 32
e 20 35
e 20 36
e 21 23
e 21 24
e 21 26
e 22 27
e 22 29
e 22 33
e 22 34
e 22 35
e 22 37
e 22 38
e 23 31
e 23 36
e 23 37
e 23 38
e 23 39
e 24 30
e 24 31
e 24 32
e 24 33
e 24 36
e 25 28
e 25 32
e 25 35
e 25 39
e 26 30
e 26 32
e 26 34
e 26 37
e 26 39
e 27 28
e 27 30
e 27 31
e 27 36
e 27 37
e 27 39
e 28 33
e 28 36
e 28 39
e 28 40
e 29 31
e 29 32
e 29 35
e 29 38
e 30 32
e 30 33
e 30 34
e 30 38
e 30 40
e 31 32
e 31 34
e 31 39
e 34 35
e 34 37
e 35 36
e 35 39
e 36 37
e 36 39
e 37 39